data/lp_files/q3/44_6.lp
\ Model foo
\ LP format - for model browsing. Use MPS format to capture full model detail.
Minimize
  z
Subject To
 allocateEach[1]: x[1,1] + x[2,1] + x[3,1] = 1
 allocateEach[2]: x[1,2] + x[2,2] + x[3,2] = 1
 allocateEach[3]: x[1,3] + x[2,3] + x[3,3] = 1
 allocateEach[4]: x[1,4] + x[2,4] + x[3,4] = 1
 allocateAllCash: cashProportion[1] + cashProportion[2] + cashProportion[3]
   = 1
 findWorstP[1,2]: z + 0.1177024482109228 cashProportion[1]
   - 0.1177024482109228 cashProportion[2] + 0.2048316854990584 x[1,1]
   + 0.203890065913371 x[1,2] + 0.270980461393597 x[1,3]
   + 0.2025953389830508 x[1,4] - 0.2048316854990584 x[2,1]
   - 0.203890065913371 x[2,2] - 0.270980461393597 x[2,3]
   - 0.2025953389830508 x[2,4] >= 0
 findWorstP[1,3]: z + 0.1177024482109228 cashProportion[1]
   - 0.1177024482109228 cashProportion[3] + 0.2048316854990584 x[1,1]
   + 0.203890065913371 x[1,2] + 0.270980461393597 x[1,3]
   + 0.2025953389830508 x[1,4] - 0.2048316854990584 x[3,1]
   - 0.203890065913371 x[3,2] - 0.270980461393597 x[3,3]
   - 0.2025953389830508 x[3,4] >= 0
 findWorstP[2,1]: z - 0.1117505727216852 cashProportion[1]
   + 0.1117505727216852 cashProportion[2] - 0.2140023467620272 x[1,1]
   - 0.2674749958093535 x[1,2] - 0.2645415432754093 x[1,3]
   - 0.1422305414315248 x[1,4] + 0.2140023467620272 x[2,1]
   + 0.2674749958093535 x[2,2] + 0.2645415432754093 x[2,3]
   + 0.1422305414315248 x[2,4] >= 0
 findWorstP[2,3]: z + 0.1117505727216852 cashProportion[2]
   - 0.1117505727216852 cashProportion[3] + 0.2140023467620272 x[2,1]
   + 0.2674749958093535 x[2,2] + 0.2645415432754093 x[2,3]
   + 0.1422305414315248 x[2,4] - 0.2140023467620272 x[3,1]
   - 0.2674749958093535 x[3,2] - 0.2645415432754093 x[3,3]
   - 0.1422305414315248 x[3,4] >= 0
 findWorstP[3,1]: z - 0.1368925393566051 cashProportion[1]
   + 0.1368925393566051 cashProportion[3] - 0.0853867214236824 x[1,1]
   - 0.2036960985626284 x[1,2] - 0.2412388774811773 x[1,3]
   - 0.332785763175907 x[1,4] + 0.0853867214236824 x[3,1]
   + 0.2036960985626284 x[3,2] + 0.2412388774811773 x[3,3]
   + 0.332785763175907 x[3,4] >= 0
 findWorstP[3,2]: z - 0.1368925393566051 cashProportion[2]
   + 0.1368925393566051 cashProportion[3] - 0.0853867214236824 x[2,1]
   - 0.2036960985626284 x[2,2] - 0.2412388774811773 x[2,3]
   - 0.332785763175907 x[2,4] + 0.0853867214236824 x[3,1]
   + 0.2036960985626284 x[3,2] + 0.2412388774811773 x[3,3]
   + 0.332785763175907 x[3,4] >= 0
Bounds
 z <= 1
 -infinity <= cashProportion[1] <= 1
 -infinity <= cashProportion[2] <= 1
 -infinity <= cashProportion[3] <= 1
Binaries
 x[1,1] x[1,2] x[1,3] x[1,4] x[2,1] x[2,2] x[2,3] x[2,4] x[3,1] x[3,2]
 x[3,3] x[3,4]
End
